p cnf 83 281
-7 1 0
-7 2 0
7 -1 -2 0
-8 1 0
-8 3 0
8 -1 -3 0
-9 1 0
-9 4 0
9 -1 -4 0
-10 1 0
-10 5 0
10 -1 -5 0
-11 1 0
-11 6 0
11 -1 -6 0
-12 2 0
-12 3 0
12 -2 -3 0
-13 2 0
-13 4 0
13 -2 -4 0
-14 2 0
-14 5 0
14 -2 -5 0
-15 2 0
-15 6 0
15 -2 -6 0
-16 3 0
-16 4 0
16 -3 -4 0
-17 3 0
-17 5 0
17 -3 -5 0
-18 3 0
-18 6 0
18 -3 -6 0
-19 4 0
-19 5 0
19 -4 -5 0
-20 4 0
-20 6 0
20 -4 -6 0
-21 5 0
-21 6 0
21 -5 -6 0
22 0
3 -22 23 0
-3 -22 -23 0
3 -23 22 0
-3 22 23 0
4 -23 24 0
-4 -23 -24 0
4 -24 23 0
-4 23 24 0
5 -24 25 0
-5 -24 -25 0
5 -25 24 0
-5 24 25 0
7 -25 26 0
-7 -25 -26 0
7 -26 25 0
-7 25 26 0
8 -26 27 0
-8 -26 -27 0
8 -27 26 0
-8 26 27 0
11 -27 28 0
-11 -27 -28 0
11 -28 27 0
-11 27 28 0
15 -28 29 0
-15 -28 -29 0
15 -29 28 0
-15 28 29 0
18 -29 30 0
-18 -29 -30 0
18 -30 29 0
-18 29 30 0
-30 0
31 0
2 -31 32 0
-2 -31 -32 0
2 -32 31 0
-2 31 32 0
3 -32 33 0
-3 -32 -33 0
3 -33 32 0
-3 32 33 0
4 -33 34 0
-4 -33 -34 0
4 -34 33 0
-4 33 34 0
6 -34 35 0
-6 -34 -35 0
6 -35 34 0
-6 34 35 0
12 -35 36 0
-12 -35 -36 0
12 -36 35 0
-12 35 36 0
13 -36 37 0
-13 -36 -37 0
13 -37 36 0
-13 36 37 0
14 -37 38 0
-14 -37 -38 0
14 -38 37 0
-14 37 38 0
15 -38 39 0
-15 -38 -39 0
15 -39 38 0
-15 38 39 0
19 -39 40 0
-19 -39 -40 0
19 -40 39 0
-19 39 40 0
-40 0
41 0
4 -41 42 0
-4 -41 -42 0
4 -42 41 0
-4 41 42 0
6 -42 43 0
-6 -42 -43 0
6 -43 42 0
-6 42 43 0
8 -43 44 0
-8 -43 -44 0
8 -44 43 0
-8 43 44 0
9 -44 45 0
-9 -44 -45 0
9 -45 44 0
-9 44 45 0
10 -45 46 0
-10 -45 -46 0
10 -46 45 0
-10 45 46 0
11 -46 47 0
-11 -46 -47 0
11 -47 46 0
-11 46 47 0
16 -47 48 0
-16 -47 -48 0
16 -48 47 0
-16 47 48 0
17 -48 49 0
-17 -48 -49 0
17 -49 48 0
-17 48 49 0
18 -49 50 0
-18 -49 -50 0
18 -50 49 0
-18 49 50 0
20 -50 51 0
-20 -50 -51 0
20 -51 50 0
-20 50 51 0
-51 0
52 0
3 -52 53 0
-3 -52 -53 0
3 -53 52 0
-3 52 53 0
5 -53 54 0
-5 -53 -54 0
5 -54 53 0
-5 53 54 0
6 -54 55 0
-6 -54 -55 0
6 -55 54 0
-6 54 55 0
7 -55 56 0
-7 -55 -56 0
7 -56 55 0
-7 55 56 0
8 -56 57 0
-8 -56 -57 0
8 -57 56 0
-8 56 57 0
9 -57 58 0
-9 -57 -58 0
9 -58 57 0
-9 57 58 0
11 -58 59 0
-11 -58 -59 0
11 -59 58 0
-11 58 59 0
12 -59 60 0
-12 -59 -60 0
12 -60 59 0
-12 59 60 0
16 -60 61 0
-16 -60 -61 0
16 -61 60 0
-16 60 61 0
18 -61 62 0
-18 -61 -62 0
18 -62 61 0
-18 61 62 0
21 -62 63 0
-21 -62 -63 0
21 -63 62 0
-21 62 63 0
-63 0
64 0
2 -64 65 0
-2 -64 -65 0
2 -65 64 0
-2 64 65 0
3 -65 66 0
-3 -65 -66 0
3 -66 65 0
-3 65 66 0
6 -66 67 0
-6 -66 -67 0
6 -67 66 0
-6 66 67 0
8 -67 68 0
-8 -67 -68 0
8 -68 67 0
-8 67 68 0
16 -68 69 0
-16 -68 -69 0
16 -69 68 0
-16 68 69 0
18 -69 70 0
-18 -69 -70 0
18 -70 69 0
-18 69 70 0
20 -70 71 0
-20 -70 -71 0
20 -71 70 0
-20 70 71 0
21 -71 72 0
-21 -71 -72 0
21 -72 71 0
-21 71 72 0
-72 0
73 0
1 -73 74 0
-1 -73 -74 0
1 -74 73 0
-1 73 74 0
3 -74 75 0
-3 -74 -75 0
3 -75 74 0
-3 74 75 0
5 -75 76 0
-5 -75 -76 0
5 -76 75 0
-5 75 76 0
6 -76 77 0
-6 -76 -77 0
6 -77 76 0
-6 76 77 0
7 -77 78 0
-7 -77 -78 0
7 -78 77 0
-7 77 78 0
9 -78 79 0
-9 -78 -79 0
9 -79 78 0
-9 78 79 0
10 -79 80 0
-10 -79 -80 0
10 -80 79 0
-10 79 80 0
16 -80 81 0
-16 -80 -81 0
16 -81 80 0
-16 80 81 0
17 -81 82 0
-17 -81 -82 0
17 -82 81 0
-17 81 82 0
19 -82 83 0
-19 -82 -83 0
19 -83 82 0
-19 82 83 0
-83 0
